# Solution for model count
# Objective value = 9
z#1 0
z#2 0
z#3 1
z#4 1
z#5 0
z#6 1
z#7 1
z#8 0
z#9 0
z#10 1
z#11 1
z#12 1
z#13 0
z#14 0
z#15 0
z#16 0
z#17 0
z#18 0
z#19 0
z#20 1
z#21 0
z#22 1
z#23 0
z#24 0
x#24 0
x#23 0
x#22 1609
x#21 0
x#20 593
x#19 0
x#18 0
x#17 0
x#16 0
x#15 0
x#14 0
x#13 0
x#12 2721
x#11 888
x#10 364
x#9 0
x#8 0
x#7 213
x#6 1453
x#5 0
x#4 659
x#3 1500
x#2 0
x#1 0
